VALUE 1600216
1 177
5 94
10 158
13 192
15 92
17 61
17 19
21 169
26 138
29 128
32 108
35 101
38 81
41 71
43 47
44 57
43 45
47 48
44 48
57 61
61 63
63 64
64 67
41 67
71 73
38 73
15 81
92 94
94 95
95 98
98 100
100 101
101 105
105 107
107 108
13 108
13 123
128 129
123 129
129 135
138 140
135 139
139 140
140 156
156 157
156 158
157 167
167 169
167 171
171 172
172 173
173 177
1 189
5 190
10 191
15 193
17 194
19 195
21 196
26 197
29 198
32 199
35 200
38 201
41 202
43 203
45 204

